Lista de máquinas criadas:
- Máquina 0: 0
- Máquina 1: 0
- Máquina 2: 0
- Máquina 3: 0
Lista de tarefas geradas:
- Tarefa 0: 7
- Tarefa 1: 7
- Tarefa 2: 6
- Tarefa 3: 6
- Tarefa 4: 5
- Tarefa 5: 5
- Tarefa 6: 4
- Tarefa 7: 4
- Tarefa 8: 4
---------------------------------------------------
Escalonamento heurística LPT:
- Máquina 0: 0 6 
- Máquina 1: 3 5 
- Máquina 2: 1 7 
- Máquina 3: 2 4 8 
- Ocupação das máquinas: 
   0: 11
   1: 11
   2: 11
   3: 15
- Occupação máxima = 15
---------------------------------------------------
Tried aggregator 1 time.
MIP Presolve eliminated 0 rows and 1 columns.
Reduced MIP has 13 rows, 37 columns, and 76 nonzeros.
Reduced MIP has 36 binaries, 1 generals, 0 SOSs, and 0 indicators.
Probing time =    0.00 sec.
Tried aggregator 1 time.
Presolve time =    0.00 sec.
Found feasible solution after 0.00 sec.  Objective = 48.0000
Probing time =    0.00 sec.
Clique table members: 9.
MIP emphasis: balance optimality and feasibility.
MIP search method: dynamic search.
Parallel mode: deterministic, using up to 4 threads.
Root relaxation solution time =    0.00 sec.

        Nodes                                         Cuts/
   Node  Left     Objective  IInf  Best Integer    Best Bound    ItCnt     Gap

*     0+    0                           48.0000                     14     --- 
      0     0       12.0000     4       48.0000       12.0000       14   75.00%
*     0+    0                           13.0000       12.0000       14    7.69%
      0     0       12.0000     6       13.0000       Cuts: 4       20    7.69%
*     0+    0                           12.0000       12.0000       20    0.00%
      0     0        cutoff             12.0000       12.0000       20    0.00%
Elapsed real time =   0.01 sec. (tree size =  0.00 MB, solutions = 3)

Zero-half cuts applied:  1
Gomory fractional cuts applied:  2

Root node processing (before b&c):
  Real time             =    0.01
Parallel b&c, 4 threads:
  Real time             =    0.00
  Sync time (average)   =    0.00
  Wait time (average)   =    0.00
                          -------
Total (root+branch&cut) =    0.01 sec.
Solution Status is Optimal
The objective value is 12
---------------------------------------------------
Escalonamento exato CPLEX:
- Máquina 0: 2 3 
- Máquina 1: 1 5 
- Máquina 2: 0 4 
- Máquina 3: 6 7 8 
- Ocupação das máquinas: 
   0: 12
   1: 12
   2: 12
   3: 12
- Occupação máxima = 12
---------------------------------------------------
Razão (LPT/OPT) = 1.25
